50
    95    72    11     6    46    47    38    94    34    76    85    73     8    98    84    26    11    68    10     2    74    53    75    17    17    41    36    51    55    31    87    50    89    40    64    26    15     1    45    56    16    60    46    84    67    82    26    18    35    45
    10     3     2     5     3     3     6     2     8     6     9     6     9     5     8     6     5     1     4     9     4     8     9     3     1     4     7     6     8     2     6     4     4     1     3     4     5     3     1     2     4     6     3     5     3     2     4     8     9     8
  1704    98   530  1122  1556  1258   813   851  1044  1159  1366   936   603  1799  1901  1945   284  1926   437  2057  1015   845     0   267     0  1025  1826   783  1080     0   687  1920  1382     0  1642   496  1245    78   740     0     0   887     0  2115  1739  1397  1831     0  1438  1513
